50
    1    45    35
    2    54    44
    3    36    26
    4    16     6
    5    58    48
    6    26    16
    7    31    21
    8    52    42
    9    32    22
   10    59    49
   11    55    45
   12    47    37
   13    53    43
   14    17     7
   15    55    45
   16    25    15
   17    15     5
   18    56    46
   19    12     2
   20    32    22
   21    19     9
   22    51    41
   23    11     1
   24    19     9
   25    32    22
   26    27    17
   27    54    44
   28    58    48
   29    48    38
   30    17     7
   31    34    24
   32    54    44
   33    25    15
   34    44    34
   35    42    32
   36    26    16
   37    27    17
   38    54    44
   39    44    34
   40    53    43
   41    59    49
   42    43    33
   43    43    33
   44    41    31
   45    42    32
   46    38    28
   47    32    22
   48    60    50
   49    34    24
   50    27    17
239
